webassembly/ejemplos_dzn/15/folder15_json_74.dzn
TERM = { '.', 's(2)', 's(5)', 's(4)', 'in_1', 'local_0', 's(9)', 'local_1', 'in_2', 'in_3', 's(8)', 's(6)', 's(1)', 's(0)', 's(7)', 's(3)', 'in_0'};
null = '.';
s = 15;
n = 10;
ndeps = 6;
max_registers_sz = 4;
NR = 1;
registers = [|'local_1', 's(6)'|];
dependencies = [|'i32.load8_s_1', 'i32.store_8', |'i32.store_8', 'call[function_index(0)]_9', |'call[function_index(0)]_9', 'i32.store_11', |'i32.store_11', 'i32.load_12', |'i32.load8_u_3', 'i32.store_8', |'i32.load8_s_6', 'i32.store_8'|];
GET_ENUM = { GET1, GET2, GET3, GET4, GET5};
SET_ENUM = { SET1, SET2, SET3, SET4, SET5};
TEE_ENUM = { TEE1, TEE2, TEE3, TEE4, TEE5};
N = 11;
OP = { 'i32.sub_0', 'call[function_index(0)]_9', 'i32.const_0', 'i32.load8_s_1', 'i32.load8_u_3', 'i32.const_1', 'i32.load8_s_6', 'i32.store_8', 'i32.store_11', 'i32.load_12', 'local.get_0' };
in_ops = [2, 3, 0, 1, 1, 0, 1, 2, 2, 1, 0 ];
out_ops = [1, 3, 1, 1, 1, 1, 1, 0, 0, 1, 1 ];
in1 = ['s(1)', 's(2)', '.', 's(8)', 'in_0', '.', 's(9)', 'local_0', 's(6)', 's(4)', '.' ];
in2 = ['in_1', 'in_2', '.', '.', '.', '.', '.', 's(3)', 's(5)', '.', '.' ];
in3 = ['.', 'in_3', '.', '.', '.', '.', '.', '.', '.', '.', '.' ];
out1 = ['s(2)', 's(6)', 's(8)', 's(0)', 's(1)', 's(9)', 's(3)', '.', '.', 's(7)', 'local_0' ];
out2 = ['.', 's(5)', '.', '.', '.', '.', '.', '.', '.', '.', '.' ];
out3 = ['.', 's(4)', '.', '.', '.', '.', '.', '.', '.', '.', '.' ];
comm = [false, false, false, false, false, false, false, false, false, false, false ];
gas = [1, 1, 1, 1, 1, 1, 1, 1, 1, 1, 1 ];
sz = [1, 1, 1, 1, 1, 1, 1, 1, 1, 1, 1 ];
stor = [false, true, false, false, false, false, false, true, true, false, false ];
lb = [ 1, 1, 1, 1, 1, 1, 1, 1, 1, 1, 1 ];
ub = [ 15, 15, 15, 15, 15, 15, 15, 15, 15, 15, 15 ];
startstack = [ 'in_0', 'in_1', 'in_2', 'in_3', null, null, null, null, null, null ];
endstack = [ 's(6)', 'local_0', 's(7)', null, null, null, null, null, null, null ];
